SCIP Status        : solving was interrupted [time limit reached]
Total Time         :    3600.01
  solving          :    3600.00
  presolving       :       0.03 (included in solving)
  reading          :       0.01
  copying          :       0.43 (168 #copies) (minimal 0.00, maximal 0.01, average 0.00)
Original Problem   :
  Problem name     : wastepaper6
  Variables        : 136 (6 binary, 84 integer, 0 implicit integer, 46 continuous)
  Constraints      : 54 initial, 54 maximal
  Objective        : minimize, 1 non-zeros (abs.min = 1, abs.max = 1)
Presolved Problem  :
  Problem name     : t_wastepaper6
  Variables        : 356 (90 binary, 0 integer, 0 implicit integer, 266 continuous)
  Constraints      : 53 initial, 56 maximal
  Objective        : minimize, 1 non-zeros (abs.min = 1, abs.max = 1)
  Nonzeros         : 526 constraint, 88 clique table
Presolvers         :   ExecTime  SetupTime  Calls  FixedVars   AggrVars   ChgTypes  ChgBounds   AddHoles    DelCons    AddCons   ChgSides   ChgCoefs
  boundshift       :       0.00       0.00      0          0          0          0          0          0          0          0          0          0
  convertinttobin  :       0.00       0.00      0          0          0          0          0          0          0          0          0          0
  domcol           :       0.00       0.00      1          0          0          0          0          0          0          0          0          0
  dualagg          :       0.00       0.00      0          0          0          0          0          0          0          0          0          0
  dualcomp         :       0.00       0.00      1          0          0          0          0          0          0          0          0          0
  dualinfer        :       0.00       0.00      0          0          0          0          0          0          0          0          0          0
  dualsparsify     :       0.00       0.00      1          0          0          0          0          0          0          0          0          0
  gateextraction   :       0.00       0.00      0          0          0          0          0          0          0          0          0          0
  implics          :       0.00       0.00      2          0          0          0          0          0          0          0          0          0
  inttobinary      :       0.00       0.00      0          0          0          0          0          0          0          0          0          0
  qpkktref         :       0.00       0.00      0          0          0          0          0          0          0          0          0          0
  redvub           :       0.00       0.00      0          0          0          0          0          0          0          0          0          0
  sparsify         :       0.00       0.00      1          0          0          0          0          0          0          0          0          0
  stuffing         :       0.00       0.00      0          0          0          0          0          0          0          0          0          0
  trivial          :       0.00       0.00      3          0          0          0          0          0          0          0          0          0
  tworowbnd        :       0.00       0.00      0          0          0          0          0          0          0          0          0          0
  dualfix          :       0.00       0.00      3          0          0          0          0          0          0          0          0          0
  genvbounds       :       0.00       0.00      0          0          0          0          0          0          0          0          0          0
  probing          :       0.02       0.00      1          0          0          0          0          0          0          0          0          0
  pseudoobj        :       0.00       0.00      0          0          0          0          0          0          0          0          0          0
  symmetry         :       0.00       0.00      1          0          0          0          0          0          0          0          0          0
  vbounds          :       0.00       0.00      1          0          0          0          0          0          0          0          0          0
  varbound         :       0.00       0.00      0          0          0          0          0          0          0          0          0          0
  knapsack         :       0.00       0.00      0          0          0          0          0          0          0          0          0          0
  setppc           :       0.00       0.00      3          0          0          0          0          0          0          0          0          0
  linear           :       0.00       0.00      5          0          0          0          1          0          1          0          0          0
  logicor          :       0.00       0.00      0          0          0          0          0          0          0          0          0          0
  bounddisjunction :       0.00       0.00      0          0          0          0          0          0          0          0          0          0
  nonlinear        :       0.01       0.00      6          0          0          0          6          0          0          0          0          0
  benders          :       0.00       0.00      0          0          0          0          0          0          0          0          0          0
  components       :       0.00       0.00      1          0          0          0          0          0          0          0          0          0
  root node        :          -          -      -          4          -          -        274          -          -          -          -          -
Constraints        :     Number  MaxNumber  #Separate #Propagate    #EnfoLP    #EnfoRelax  #EnfoPS    #Check   #ResProp    Cutoffs    DomReds       Cuts    Applied      Conss   Children
  benderslp        :          0          0          0          0     840998          0          0      81230          0          0          0          0          0          0          0
  integral         :          0          0          0          0     840998          0          0      81230          0          0      23062          0          0        286    1349466
  varbound         :          0+         5          0      24199          0          0          0          0          1        125       2313          0          0          0          0
  knapsack         :          0+         1          0         12          0          0          0          0          0          0          1          0          0          0          0
  setppc           :         13+        16         25    8511400          2          0          0      81226        664      22705    2161917          0          0          0          0
  linear           :         12+        22         25    9404999          3          0          0      54238       1475      51365    8006891          0          0          0          0
  logicor          :          0+         6          0      80169          0          0          0          0          1         49       1336          0          0          0          0
  bounddisjunction :          0+         5          0        326          0          0          0          0          0          4         14          0          0          0          0
  nonlinear        :         28         28    1802385    9353581     162154          0          0      54238          0      57048  110895279    6481014    5789716          0     173928
  benders          :          0          0          0          0          3          0          0         22          0          0          0          0          0          0          0
  countsols        :          0          0          0          0          3          0          0         22          0          0          0          0          0          0          0
  components       :          0          0          0          0          0          0          0          0          0          0          0          0          0          0          0
Constraint Timings :  TotalTime  SetupTime   Separate  Propagate     EnfoLP     EnfoPS     EnfoRelax   Check    ResProp    SB-Prop
  benderslp        :       0.28       0.00       0.00       0.00       0.27       0.00       0.00       0.01       0.00       0.00
  integral         :      22.74       0.00       0.00       0.00      22.72       0.00       0.00       0.02       0.00       0.00
  varbound         :       0.02       0.00       0.00       0.02       0.00       0.00       0.00       0.00       0.00       0.00
  knapsack         :       0.00       0.00       0.00       0.00       0.00       0.00       0.00       0.00       0.00       0.00
  setppc           :       9.50       0.00       0.00       9.23       0.00       0.00       0.00       0.21       0.00       0.06
  linear           :      17.48       0.00       0.00      17.17       0.00       0.00       0.00       0.11       0.00       0.20
  logicor          :       0.08       0.00       0.00       0.08       0.00       0.00       0.00       0.00       0.00       0.00
  bounddisjunction :       0.00       0.00       0.00       0.00       0.00       0.00       0.00       0.00       0.00       0.00
  nonlinear        :    1704.37       0.00     131.46    1553.35       9.92       0.00       0.00       1.49       0.00       8.15
  benders          :       0.00       0.00       0.00       0.00       0.00       0.00       0.00       0.00       0.00       0.00
  countsols        :       0.00       0.00       0.00       0.00       0.00       0.00       0.00       0.00       0.00       0.00
  components       :       0.33       0.00       0.00       0.33       0.00       0.00       0.00       0.00       0.00       0.00
Propagators        : #Propagate   #ResProp    Cutoffs    DomReds
  dualfix          :          4          0          0          0
  genvbounds       :    6740250         86       3669    5880340
  nlobbt           :          0          0          0          0
  obbt             :          3          0          0         12
  probing          :          0          0          0          0
  pseudoobj        :   10197612          0        302          2
  redcost          :    3137522          0          0          0
  rootredcost      :         20          0          0         98
  symmetry         :          0          0          0          0
  vbounds          :    1083916          0          0          0
Propagator Timings :  TotalTime  SetupTime   Presolve  Propagate    ResProp    SB-Prop
  dualfix          :       0.00       0.00       0.00       0.00       0.00       0.00
  genvbounds       :      15.21       0.00       0.00      15.20       0.00       0.01
  nlobbt           :       0.00       0.00       0.00       0.00       0.00       0.00
  obbt             :       0.02       0.00       0.00       0.02       0.00       0.00
  probing          :       0.02       0.00       0.02       0.00       0.00       0.00
  pseudoobj        :       3.07       0.00       0.00       3.06       0.00       0.00
  redcost          :       4.78       0.00       0.00       4.77       0.00       0.00
  rootredcost      :       1.29       0.00       0.00       1.28       0.00       0.00
  symmetry         :       0.84       0.00       0.00       0.84       0.00       0.00
  vbounds          :       1.62       0.00       0.00       1.61       0.00       0.01
Conflict Analysis  :       Time      Calls    Success    DomReds  Conflicts   Literals    Reconvs ReconvLits   Dualrays   Nonzeros   LP Iters   (pool size: [10000,10000])
  propagation      :       0.05      29724       1654          -       1663        3.4          0        0.0          -          -          -
  infeasible LP    :      25.93     477562     341104          -        293        4.9          0        0.0     340898       11.2          0
  bound exceed. LP :       4.17      73963         50          -          1        9.0          0        0.0         49       49.5        254
  strong branching :       0.00          0          0          -          0        0.0          0        0.0          -          -          0
  pseudo solution  :       0.00          0          0          -          0        0.0          0        0.0          -          -          -
  applied globally :       0.00          -          -          0          5        3.4          -          -        767          -          -
  applied locally  :          -          -          -        206        421        7.1          -          -     340180          -          -
Separators         :   ExecTime  SetupTime      Calls  RootCalls    Cutoffs    DomReds  FoundCuts ViaPoolAdd  DirectAdd    Applied ViaPoolApp  DirectApp      Conss
  cut pool         :       0.14          -     185174         48          -          -       1696       1498          -          -          -          -          -    (maximal pool size:        286)
  aggregation      :       1.31       0.00       4890         24          0          0      12049       1158      10681       3907        525       3382          0
  > cmir           :          -          -          -          -          -          -          -        895       6745       2246        384       1862          -
  > flowcover      :          -          -          -          -          -          -          -        263       3887       1648        141       1507          -
  > knapsackcover  :          -          -          -          -          -          -          -          0         49         13          0         13          -
  cgmip            :       0.00       0.00          0          0          0          0          0          0          0          0          0          0          0
  clique           :       0.00       0.00         24         24          0          0          0          0          0          0          0          0          0
  closecuts        :       0.00       0.00          0          0          0          0          0          0          0          0          0          0          0
  convexproj       :       0.00       0.00          0          0          0          0          0          0          0          0          0          0          0
  disjunctive      :       0.00       0.00          0          0          0          0          0          0          0          0          0          0          0
  eccuts           :       0.00       0.00          0          0          0          0          0          0          0          0          0          0          0
  gauge            :       0.00       0.00          0          0          0          0          0          0          0          0          0          0          0
  gomory           :       0.37       0.00       4867         10          0          0      12985        262      12742       5247        152       5095          0
  > gomorymi       :          -          -          -          -          -          -          -        262      11923       5200        152       5048          -
  > strongcg       :          -          -          -          -          -          -          -          0        819         47          0         47          -
  impliedbounds    :       0.02       0.00       4890         24          0          0         78         70          0         58         58          0          0
  interminor       :       0.00       0.00          0          0          0          0          0          0          0          0          0          0          0
  intobj           :       0.00       0.00          0          0          0          0          0          0          0          0          0          0          0
  mcf              :       0.00       0.00          4          4          0          0          0          0          0          0          0          0          0
  minor            :       0.01       0.00          0          0          0          0          0          0          0          0          0          0          0
  mixing           :       0.10       0.00      16510         25          0          0          0          0          0          0          0          0          0
  oddcycle         :       0.00       0.00          0          0          0          0          0          0          0          0          0          0          0
  rapidlearning    :       0.01       0.00          0          0          0          0          0          0          0          0          0          0          0
  rlt              :       0.00       0.00         10         10          0          0          7          8          0          7          7          0          0
  zerohalf         :       0.28       0.00       4877         20          0          0          0          0          0          0          0          0          0
Cutselectors       :   ExecTime  SetupTime      Calls  RootCalls   Selected     Forced   Filtered  RootSelec   RootForc   RootFilt 
  hybrid           :       2.74       0.00    1571464         25    5700987       1431     645104        204          0         96
Pricers            :   ExecTime  SetupTime      Calls       Vars
  problem variables:       0.00          -          0          0
Branching Rules    :   ExecTime  SetupTime   BranchLP  BranchExt   BranchPS    Cutoffs    DomReds       Cuts      Conss   Children
  allfullstrong    :       0.00       0.00          0          0          0          0          0          0          0          0
  cloud            :       0.00       0.00          0          0          0          0          0          0          0          0
  distribution     :       0.00       0.00          0          0          0          0          0          0          0          0
  fullstrong       :       0.00       0.00          0          0          0          0          0          0          0          0
  inference        :       0.00       0.00          0          0          0          0          0          0          0          0
  leastinf         :       0.00       0.00          0          0          0          0          0          0          0          0
  lookahead        :       0.00       0.00          0          0          0          0          0          0          0          0
  mostinf          :       0.00       0.00          0          0          0          0          0          0          0          0
  multaggr         :       0.00       0.00          0          0          0          0          0          0          0          0
  nodereopt        :       0.00       0.00          0          0          0          0          0          0          0          0
  pscost           :       0.00       0.00          0          0          0          0          0          0          0          0
  random           :       0.00       0.00          0          0          0          0          0          0          0          0
  relpscost        :      22.25       0.00     678844          0          0          0      23062          0        505    1349466
  vanillafullstrong:       0.00       0.00          0          0          0          0          0          0          0          0
Primal Heuristics  :   ExecTime  SetupTime      Calls      Found       Best
  LP solutions     :       0.01          -          -          3          3
  relax solutions  :       0.00          -          -          0          0
  pseudo solutions :       0.00          -          -          0          0
  strong branching :       0.06          -          -          0          0
  actconsdiving    :       0.00       0.00          0          0          0
  adaptivediving   :       0.70       0.00        715          0          0
  alns             :       8.33       0.00         52          2          2
  bound            :       0.00       0.00          0          0          0
  clique           :       0.01       0.00          1          0          0
  coefdiving       :       0.00       0.00          0          0          0
  completesol      :       0.00       0.00          0          0          0
  conflictdiving   :       0.22       0.00       1022          0          0
  crossover        :      38.69       0.00         50          6          5
  dins             :       0.00       0.00          0          0          0
  distributiondivin:      10.91       0.00        357          0          0
  dps              :       0.00       0.00          0          0          0
  dualval          :       0.00       0.00          0          0          0
  farkasdiving     :       0.05       0.00          0          0          0
  feaspump         :       0.06       0.00         10          0          0
  fixandinfer      :       0.00       0.00          0          0          0
  fracdiving       :       0.14       0.00       1077          0          0
  gins             :       0.34       0.00          0          0          0
  guideddiving     :       0.14       0.00       1057          0          0
  indicator        :       0.43       0.00          0          0          0
  indicatordiving  :       0.00       0.00          0          0          0
  intdiving        :       0.00       0.00          0          0          0
  intshifting      :       0.04       0.00         27          0          0
  linesearchdiving :       0.18       0.00       1055          0          0
  localbranching   :       0.00       0.00          0          0          0
  locks            :       0.00       0.00          1          0          0
  lpface           :       0.41       0.00          0          0          0
  mpec             :       1.09       0.00         11          0          0
  multistart       :       0.00       0.00          0          0          0
  mutation         :       0.00       0.00          0          0          0
  nlpdiving        :       0.72       0.00         12          2          2
  objpscostdiving  :       0.44       0.00        179          0          0
  octane           :       0.00       0.00          0          0          0
  ofins            :       0.25       0.00          0          0          0
  oneopt           :       0.35       0.00         20          0          0
  padm             :       0.00       0.00          0          0          0
  proximity        :       0.00       0.00          0          0          0
  pscostdiving     :       1.49       0.00        357          0          0
  randrounding     :       1.44       0.00      55973          0          0
  rens             :       0.45       0.00          1          0          0
  reoptsols        :       0.00       0.00          0          0          0
  repair           :       0.00       0.00          0          0          0
  rins             :       6.60       0.00         66          0          0
  rootsoldiving    :       0.66       0.00        179          0          0
  rounding         :       0.98       0.00      19355          0          0
  shiftandpropagate:       0.00       0.00          1          0          0
  shifting         :       0.36       0.00       6156          0          0
  simplerounding   :       0.55       0.00          0          0          0
  subnlp           :      13.88       0.00        463         11          8
  trivial          :       0.00       0.00          2          0          0
  trivialnegation  :       0.00       0.00          0          0          0
  trustregion      :       0.00       0.00          0          0          0
  trysol           :       0.40       0.00          0          0          0
  twoopt           :       0.00       0.00          0          0          0
  undercover       :       0.02       0.00          1          0          0
  vbounds          :       0.00       0.00          0          0          0
  veclendiving     :       0.14       0.00       1075          0          0
  zeroobj          :       0.00       0.00          0          0          0
  zirounding       :       0.29       0.00       1000          0          0
  other solutions  :          -          -          -          0          -
Expressions        :   #IntEval  IntEvalTi   #RevProp  RevPropTi    DomReds    Cutoffs  #Estimate  EstimTime  Branching  #Simplify SimplifyTi Simplified
  pow              :   45809669       7.59    1356191       0.84    1354082          0    9375484       1.59     752604         30       0.00          0
  prod             : 1946198271     235.94   38053482      13.87   11646486       3378   21414666       1.95    1475544        444       0.00         12
  sum              :  213663354      98.99  203599261     181.92   46821353       2068         28       0.00          0         69       0.00         36
  var              :   79153584       3.50          0       0.00          0          0          0       0.00          0        947       0.00          0
  varidx           :          0       0.00          0       0.00          0          0          0       0.00          0          0       0.00          0
Nlhdlrs            :    Detects  DetectAll DetectTime   #IntEval  IntEvalTi   #RevProp  RevPropTi    DomReds    Cutoffs   #Enforce   EnfoTime       Cuts  Branching
  soc              :          0          0       0.00          0       0.00          0       0.00          0          0          0       0.00          0          0
  convex           :          0          0       0.00          0       0.00          0       0.00          0          0          0       0.00          0          0
  concave          :          0          0       0.00          0       0.00          0       0.00          0          0          0       0.00          0          0
  signomial        :         12         12       0.00          0       0.00          0       0.00          0          0   25827162       2.54         22          0
  quotient         :          0          0       0.00          0       0.00          0       0.00          0          0          0       0.00          0          0
  quadratic        :          0          0       0.00          0       0.00          0       0.00          0          0          0       0.00          0          0
  default          :        356       2492       0.00 2205670698     449.41  243009342     439.32   59821921       5599   30789986      35.08    6480992          0
  bilinear         :         12         12       0.00   41378187       1.67   13577945       0.58          0          0    8291333       0.74          0          0
  perspective      :          0          0       0.00          0       0.00          0       0.00          0          0          0       0.00          0          0
LP                 :       Time      Calls Iterations  Iter/call   Iter/sec  Time-0-It Calls-0-It    ItLimit
  primal LP        :     212.80     536213          0       0.00       0.00     212.75     536213
  dual LP          :    1049.34    3011886   22925263       7.98   21847.28      39.83     140195
  lex dual LP      :       0.00          0          0       0.00          -
  barrier LP       :       0.00          0          0       0.00          -       0.00          0
  resolve instable :       0.00          0          0       0.00          -
  diving/probing LP:       2.39       3131      28154       8.99   11782.91
  strong branching :       2.64       7998      66693       8.34   25226.12          -          -       2487
    (at root node) :          -         26        369      14.19          -
  conflict analysis:       0.01         26        254       9.77          -
NLP relaxation     :
  solve time       :       0.69 (15 calls)
  convexity        :  nonconvex (25 linear rows, 0 convex ineq., 0 nonconvex ineq., 28 nonlinear eq. or two-sided ineq.)
NLP Solvers        :  #Problems  ProblemTi    #Solves  SolveTime      #Iter  Time/Iter      #Okay #TimeLimit #IterLimit #LObjLimit #Interrupt  #NumError #EvalError  #OutOfMem #LicenseEr #OtherTerm   #GlobOpt    #LocOpt  #Feasible #LocInfeas #GlobInfea #Unbounded   #Unknown
  ipopt            :        388      10.97        397      10.94      10845       0.00        395          0          2          0          0          0          0          0          0          0          0         29          0        356          0          0         12
B&B Tree           :
  number of runs   :          1
  nodes            :    1507052 (761697 internal, 745355 leaves)
  feasible leaves  :          3
  infeas. leaves   :     609653
  objective leaves :     135698
  nodes (total)    :    1507052 (761697 internal, 745355 leaves)
  nodes left       :       6217
  max depth        :         58
  max depth (total):         58
  backtracks       :     284335 (18.9%)
  early backtracks :          0 (0.0%)
  nodes exc. ref.  :          0 (0.0%)
  delayed cutoffs  :        236
  repropagations   :       2584 (56686 domain reductions, 109 cutoffs)
  avg switch length:       3.96
  switching time   :     343.91
Root Node          :
  First LP value   : +0.00000000000000e+00
  First LP Iters   :          9 (13574.66 Iter/sec)
  First LP Time    :       0.00
  Final Dual Bound : +0.00000000000000e+00
  Final Root Iters :        476
  Root LP Estimate : +3.21201488517983e-03
Solution           :
  Solutions found  :         24 (20 improvements)
  First Solution   : +6.49000000000000e-01   (in run 1, after 1 nodes, 0.09 seconds, depth 0, found by <subnlp>)
  Gap First Sol.   :   infinite
  Gap Last Sol.    :   infinite
  Primal Bound     : +2.31268683234413e-04   (in run 1, after 325370 nodes, 757.40 seconds, depth 26, found by <crossover>)
  Dual Bound       : +7.88872603634146e-10
  Gap              :   infinite
Integrals          :      Total       Avg%
  primal-dual      :  360000.01     100.00
  primal-ref       :          -          - (not evaluated)
  dual-ref         :          -          - (not evaluated)
